BAYES
576
2 2 2 2 2 2 2 2 2 2 2 2 2 2 2 2 2 2 2 2 2 2 2 2 2 2 2 2 2 2 2 2 2 2 2 2 2 2 2 2 2 2 2 2 2 2 2 2 2 2 2 2 2 2 2 2 2 2 2 2 2 2 2 2 2 2 2 2 2 2 2 2 2 2 2 2 2 2 2 2 2 2 2 2 2 2 2 2 2 2 2 2 2 2 2 2 2 2 2 2 2 2 2 2 2 2 2 2 2 2 2 2 2 2 2 2 2 2 2 2 2 2 2 2 2 2 2 2 2 2 2 2 2 2 2 2 2 2 2 2 2 2 2 2 2 2 2 2 2 2 2 2 2 2 2 2 2 2 2 2 2 2 2 2 2 2 2 2 2 2 2 2 2 2 2 2 2 2 2 2 2 2 2 2 2 2 2 2 2 2 2 2 2 2 2 2 2 2 2 2 2 2 2 2 2 2 2 2 2 2 2 2 2 2 2 2 2 2 2 2 2 2 2 2 2 2 2 2 2 2 2 2 2 2 2 2 2 2 2 2 2 2 2 2 2 2 2 2 2 2 2 2 2 2 2 2 2 2 2 2 2 2 2 2 2 2 2 2 2 2 2 2 2 2 2 2 2 2 2 2 2 2 2 2 2 2 2 2 2 2 2 2 2 2 2 2 2 2 2 2 2 2 2 2 2 2 2 2 2 2 2 2 2 2 2 2 2 2 2 2 2 2 2 2 2 2 2 2 2 2 2 2 2 2 2 2 2 2 2 2 2 2 2 2 2 2 2 2 2 2 2 2 2 2 2 2 2 2 2 2 2 2 2 2 2 2 2 2 2 2 2 2 2 2 2 2 2 2 2 2 2 2 2 2 2 2 2 2 2 2 2 2 2 2 2 2 2 2 2 2 2 2 2 2 2 2 2 2 2 2 2 2 2 2 2 2 2 2 2 2 2 2 2 2 2 2 2 2 2 2 2 2 2 2 2 2 2 2 2 2 2 2 2 2 2 2 2 2 2 2 2 2 2 2 2 2 2 2 2 2 2 2 2 2 2 2 2 2 2 2 2 2 2 2 2 2 2 2 2 2 2 2 2 2 2 2 2 2 2 2 2 2 2 2 2 2 2 2 2 2 2 2 2 2 2 2 2 2 2 2 2 2 2 2 2 2 2 2 2 2 2 2 2 2 2 2 2 2 2 2 2 2 2 2 2 2 2 2 2 2 2 2 2 2 2 2 2 2 2 2 2 2 2 2 2 2 2 2 2 2 2 2 2 2 2 2 2 2 2 2 2 2 2 2 2 2
576
1 0
2 0 1
2 1 2
2 2 3
2 3 4
2 4 5
2 5 6
2 6 7
2 7 8
2 8 9
2 9 10
2 10 11
2 11 12
2 12 13
2 13 14
2 14 15
2 15 16
2 16 17
2 17 18
2 18 19
2 19 20
2 20 21
2 21 22
2 22 23
2 0 24
3 1 24 25
3 2 25 26
3 3 26 27
3 4 27 28
3 5 28 29
3 6 29 30
3 7 30 31
3 8 31 32
3 9 32 33
3 10 33 34
3 11 34 35
3 12 35 36
3 13 36 37
3 14 37 38
3 15 38 39
3 16 39 40
3 17 40 41
3 18 41 42
3 19 42 43
3 20 43 44
3 21 44 45
3 22 45 46
3 23 46 47
2 24 48
3 25 48 49
3 26 49 50
3 27 50 51
3 28 51 52
3 29 52 53
3 30 53 54
3 31 54 55
3 32 55 56
3 33 56 57
3 34 57 58
3 35 58 59
3 36 59 60
3 37 60 61
3 38 61 62
3 39 62 63
3 40 63 64
3 41 64 65
3 42 65 66
3 43 66 67
3 44 67 68
3 45 68 69
3 46 69 70
3 47 70 71
2 48 72
3 49 72 73
3 50 73 74
3 51 74 75
3 52 75 76
3 53 76 77
3 54 77 78
3 55 78 79
3 56 79 80
3 57 80 81
3 58 81 82
3 59 82 83
3 60 83 84
3 61 84 85
3 62 85 86
3 63 86 87
3 64 87 88
3 65 88 89
3 66 89 90
3 67 90 91
3 68 91 92
3 69 92 93
3 70 93 94
3 71 94 95
2 72 96
3 73 96 97
3 74 97 98
3 75 98 99
3 76 99 100
3 77 100 101
3 78 101 102
3 79 102 103
3 80 103 104
3 81 104 105
3 82 105 106
3 83 106 107
3 84 107 108
3 85 108 109
3 86 109 110
3 87 110 111
3 88 111 112
3 89 112 113
3 90 113 114
3 91 114 115
3 92 115 116
3 93 116 117
3 94 117 118
3 95 118 119
2 96 120
3 97 120 121
3 98 121 122
3 99 122 123
3 100 123 124
3 101 124 125
3 102 125 126
3 103 126 127
3 104 127 128
3 105 128 129
3 106 129 130
3 107 130 131
3 108 131 132
3 109 132 133
3 110 133 134
3 111 134 135
3 112 135 136
3 113 136 137
3 114 137 138
3 115 138 139
3 116 139 140
3 117 140 141
3 118 141 142
3 119 142 143
2 120 144
3 121 144 145
3 122 145 146
3 123 146 147
3 124 147 148
3 125 148 149
3 126 149 150
3 127 150 151
3 128 151 152
3 129 152 153
3 130 153 154
3 131 154 155
3 132 155 156
3 133 156 157
3 134 157 158
3 135 158 159
3 136 159 160
3 137 160 161
3 138 161 162
3 139 162 163
3 140 163 164
3 141 164 165
3 142 165 166
3 143 166 167
2 144 168
3 145 168 169
3 146 169 170
3 147 170 171
3 148 171 172
3 149 172 173
3 150 173 174
3 151 174 175
3 152 175 176
3 153 176 177
3 154 177 178
3 155 178 179
3 156 179 180
3 157 180 181
3 158 181 182
3 159 182 183
3 160 183 184
3 161 184 185
3 162 185 186
3 163 186 187
3 164 187 188
3 165 188 189
3 166 189 190
3 167 190 191
2 168 192
3 169 192 193
3 170 193 194
3 171 194 195
3 172 195 196
3 173 196 197
3 174 197 198
3 175 198 199
3 176 199 200
3 177 200 201
3 178 201 202
3 179 202 203
3 180 203 204
3 181 204 205
3 182 205 206
3 183 206 207
3 184 207 208
3 185 208 209
3 186 209 210
3 187 210 211
3 188 211 212
3 189 212 213
3 190 213 214
3 191 214 215
2 192 216
3 193 216 217
3 194 217 218
3 195 218 219
3 196 219 220
3 197 220 221
3 198 221 222
3 199 222 223
3 200 223 224
3 201 224 225
3 202 225 226
3 203 226 227
3 204 227 228
3 205 228 229
3 206 229 230
3 207 230 231
3 208 231 232
3 209 232 233
3 210 233 234
3 211 234 235
3 212 235 236
3 213 236 237
3 214 237 238
3 215 238 239
2 216 240
3 217 240 241
3 218 241 242
3 219 242 243
3 220 243 244
3 221 244 245
3 222 245 246
3 223 246 247
3 224 247 248
3 225 248 249
3 226 249 250
3 227 250 251
3 228 251 252
3 229 252 253
3 230 253 254
3 231 254 255
3 232 255 256
3 233 256 257
3 234 257 258
3 235 258 259
3 236 259 260
3 237 260 261
3 238 261 262
3 239 262 263
2 240 264
3 241 264 265
3 242 265 266
3 243 266 267
3 244 267 268
3 245 268 269
3 246 269 270
3 247 270 271
3 248 271 272
3 249 272 273
3 250 273 274
3 251 274 275
3 252 275 276
3 253 276 277
3 254 277 278
3 255 278 279
3 256 279 280
3 257 280 281
3 258 281 282
3 259 282 283
3 260 283 284
3 261 284 285
3 262 285 286
3 263 286 287
2 264 288
3 265 288 289
3 266 289 290
3 267 290 291
3 268 291 292
3 269 292 293
3 270 293 294
3 271 294 295
3 272 295 296
3 273 296 297
3 274 297 298
3 275 298 299
3 276 299 300
3 277 300 301
3 278 301 302
3 279 302 303
3 280 303 304
3 281 304 305
3 282 305 306
3 283 306 307
3 284 307 308
3 285 308 309
3 286 309 310
3 287 310 311
2 288 312
3 289 312 313
3 290 313 314
3 291 314 315
3 292 315 316
3 293 316 317
3 294 317 318
3 295 318 319
3 296 319 320
3 297 320 321
3 298 321 322
3 299 322 323
3 300 323 324
3 301 324 325
3 302 325 326
3 303 326 327
3 304 327 328
3 305 328 329
3 306 329 330
3 307 330 331
3 308 331 332
3 309 332 333
3 310 333 334
3 311 334 335
2 312 336
3 313 336 337
3 314 337 338
3 315 338 339
3 316 339 340
3 317 340 341
3 318 341 342
3 319 342 343
3 320 343 344
3 321 344 345
3 322 345 346
3 323 346 347
3 324 347 348
3 325 348 349
3 326 349 350
3 327 350 351
3 328 351 352
3 329 352 353
3 330 353 354
3 331 354 355
3 332 355 356
3 333 356 357
3 334 357 358
3 335 358 359
2 336 360
3 337 360 361
3 338 361 362
3 339 362 363
3 340 363 364
3 341 364 365
3 342 365 366
3 343 366 367
3 344 367 368
3 345 368 369
3 346 369 370
3 347 370 371
3 348 371 372
3 349 372 373
3 350 373 374
3 351 374 375
3 352 375 376
3 353 376 377
3 354 377 378
3 355 378 379
3 356 379 380
3 357 380 381
3 358 381 382
3 359 382 383
2 360 384
3 361 384 385
3 362 385 386
3 363 386 387
3 364 387 388
3 365 388 389
3 366 389 390
3 367 390 391
3 368 391 392
3 369 392 393
3 370 393 394
3 371 394 395
3 372 395 396
3 373 396 397
3 374 397 398
3 375 398 399
3 376 399 400
3 377 400 401
3 378 401 402
3 379 402 403
3 380 403 404
3 381 404 405
3 382 405 406
3 383 406 407
2 384 408
3 385 408 409
3 386 409 410
3 387 410 411
3 388 411 412
3 389 412 413
3 390 413 414
3 391 414 415
3 392 415 416
3 393 416 417
3 394 417 418
3 395 418 419
3 396 419 420
3 397 420 421
3 398 421 422
3 399 422 423
3 400 423 424
3 401 424 425
3 402 425 426
3 403 426 427
3 404 427 428
3 405 428 429
3 406 429 430
3 407 430 431
2 408 432
3 409 432 433
3 410 433 434
3 411 434 435
3 412 435 436
3 413 436 437
3 414 437 438
3 415 438 439
3 416 439 440
3 417 440 441
3 418 441 442
3 419 442 443
3 420 443 444
3 421 444 445
3 422 445 446
3 423 446 447
3 424 447 448
3 425 448 449
3 426 449 450
3 427 450 451
3 428 451 452
3 429 452 453
3 430 453 454
3 431 454 455
2 432 456
3 433 456 457
3 434 457 458
3 435 458 459
3 436 459 460
3 437 460 461
3 438 461 462
3 439 462 463
3 440 463 464
3 441 464 465
3 442 465 466
3 443 466 467
3 444 467 468
3 445 468 469
3 446 469 470
3 447 470 471
3 448 471 472
3 449 472 473
3 450 473 474
3 451 474 475
3 452 475 476
3 453 476 477
3 454 477 478
3 455 478 479
2 456 480
3 457 480 481
3 458 481 482
3 459 482 483
3 460 483 484
3 461 484 485
3 462 485 486
3 463 486 487
3 464 487 488
3 465 488 489
3 466 489 490
3 467 490 491
3 468 491 492
3 469 492 493
3 470 493 494
3 471 494 495
3 472 495 496
3 473 496 497
3 474 497 498
3 475 498 499
3 476 499 500
3 477 500 501
3 478 501 502
3 479 502 503
2 480 504
3 481 504 505
3 482 505 506
3 483 506 507
3 484 507 508
3 485 508 509
3 486 509 510
3 487 510 511
3 488 511 512
3 489 512 513
3 490 513 514
3 491 514 515
3 492 515 516
3 493 516 517
3 494 517 518
3 495 518 519
3 496 519 520
3 497 520 521
3 498 521 522
3 499 522 523
3 500 523 524
3 501 524 525
3 502 525 526
3 503 526 527
2 504 528
3 505 528 529
3 506 529 530
3 507 530 531
3 508 531 532
3 509 532 533
3 510 533 534
3 511 534 535
3 512 535 536
3 513 536 537
3 514 537 538
3 515 538 539
3 516 539 540
3 517 540 541
3 518 541 542
3 519 542 543
3 520 543 544
3 521 544 545
3 522 545 546
3 523 546 547
3 524 547 548
3 525 548 549
3 526 549 550
3 527 550 551
2 528 552
3 529 552 553
3 530 553 554
3 531 554 555
3 532 555 556
3 533 556 557
3 534 557 558
3 535 558 559
3 536 559 560
3 537 560 561
3 538 561 562
3 539 562 563
3 540 563 564
3 541 564 565
3 542 565 566
3 543 566 567
3 544 567 568
3 545 568 569
3 546 569 570
3 547 570 571
3 548 571 572
3 549 572 573
3 550 573 574
3 551 574 575

2
0.707193 0.292807
4
1.0 0.0 0.0 1.0
4
1.0 0.0 0.0 1.0
4
1.0 0.0 0.0 1.0
4
0.0 1.0 1.0 0.0
4
0.480964 0.519036 0.684143 0.315857
4
1.0 0.0 0.0 1.0
4
0.868494 0.131506 0.958752 0.0412478
4
1.0 0.0 0.0 1.0
4
0.0 1.0 1.0 0.0
4
0.0 1.0 1.0 0.0
4
0.0 1.0 1.0 0.0
4
0.884869 0.115131 0.57011 0.42989
4
1.0 0.0 0.0 1.0
4
1.0 0.0 0.0 1.0
4
0.0 1.0 1.0 0.0
4
1.0 0.0 0.0 1.0
4
1.0 0.0 0.0 1.0
4
0.937954 0.0620463 0.990695 0.00930519
4
1.0 0.0 0.0 1.0
4
0.0 1.0 1.0 0.0
4
1.0 0.0 0.0 1.0
4
0.845602 0.154398 0.888439 0.111561
4
0.865261 0.134739 0.964529 0.0354706
4
0.0 1.0 1.0 0.0
8
0.0 1.0 1.0 0.0 1.0 0.0 0.0 1.0
8
1.0 0.0 1.0 0.0 0.0 1.0 1.0 0.0
8
1.0 0.0 0.0 1.0 0.0 1.0 0.0 1.0
8
1.0 0.0 1.0 0.0 1.0 0.0 0.0 1.0
8
0.0 1.0 1.0 0.0 1.0 0.0 0.0 1.0
8
1.0 0.0 1.0 0.0 0.0 1.0 1.0 0.0
8
0.0 1.0 0.0 1.0 1.0 0.0 0.0 1.0
8
0.0 1.0 1.0 0.0 1.0 0.0 0.0 1.0
8
0.0 1.0 0.0 1.0 1.0 0.0 0.0 1.0
8
0.0 1.0 1.0 0.0 0.0 1.0 1.0 0.0
8
0.0 1.0 0.0 1.0 1.0 0.0 1.0 0.0
8
0.0310989 0.968901 0.549848 0.450152 0.131476 0.868524 0.563362 0.436638
8
0.613937 0.386063 0.285044 0.714956 0.07596 0.92404 0.831428 0.168572
8
0.0 1.0 1.0 0.0 1.0 0.0 1.0 0.0
8
0.240005 0.759995 0.741774 0.258226 0.575213 0.424787 0.293471 0.706529
8
0.682419 0.317581 0.776836 0.223164 0.557269 0.442731 0.88615 0.11385
8
0.960964 0.0390364 0.686431 0.313569 0.234114 0.765886 0.775751 0.224249
8
0.0480496 0.95195 0.80685 0.19315 0.478713 0.521287 0.179526 0.820474
8
0.0 1.0 0.0 1.0 0.0 1.0 1.0 0.0
8
0.0 1.0 1.0 0.0 0.0 1.0 0.0 1.0
8
0.0 1.0 0.0 1.0 1.0 0.0 0.0 1.0
8
0.0 1.0 0.0 1.0 0.0 1.0 1.0 0.0
8
0.0 1.0 1.0 0.0 0.0 1.0 1.0 0.0
4
0.172534 0.827466 0.998281 0.00171868
8
0.0 1.0 0.0 1.0 1.0 0.0 0.0 1.0
8
0.703373 0.296627 0.416768 0.583232 0.59616 0.40384 0.710246 0.289754
8
0.0 1.0 0.0 1.0 1.0 0.0 0.0 1.0
8
0.0 1.0 1.0 0.0 1.0 0.0 0.0 1.0
8
1.0 0.0 1.0 0.0 1.0 0.0 0.0 1.0
8
0.990853 0.0091466 0.824639 0.175361 0.113836 0.886164 0.989135 0.0108653
8
0.0 1.0 1.0 0.0 1.0 0.0 0.0 1.0
8
0.0 1.0 1.0 0.0 1.0 0.0 0.0 1.0
8
1.0 0.0 0.0 1.0 1.0 0.0 1.0 0.0
8
0.0 1.0 1.0 0.0 1.0 0.0 1.0 0.0
8
0.228703 0.771297 0.50516 0.49484 0.589526 0.410474 0.269325 0.730675
8
0.0 1.0 1.0 0.0 0.0 1.0 0.0 1.0
8
0.409746 0.590254 0.416254 0.583746 0.336587 0.663413 0.170857 0.829143
8
0.0 1.0 1.0 0.0 0.0 1.0 0.0 1.0
8
0.090391 0.909609 0.862041 0.137959 0.566453 0.433547 0.372582 0.627418
8
1.0 0.0 1.0 0.0 1.0 0.0 0.0 1.0
8
1.0 0.0 0.0 1.0 1.0 0.0 0.0 1.0
8
0.0 1.0 0.0 1.0 1.0 0.0 1.0 0.0
8
1.0 0.0 1.0 0.0 0.0 1.0 0.0 1.0
8
0.0 1.0 1.0 0.0 1.0 0.0 1.0 0.0
8
0.0 1.0 0.0 1.0 1.0 0.0 1.0 0.0
8
0.556554 0.443446 0.142992 0.857008 0.187163 0.812837 0.692828 0.307172
8
0.0 1.0 1.0 0.0 1.0 0.0 1.0 0.0
4
0.0 1.0 1.0 0.0
8
0.0 1.0 1.0 0.0 0.0 1.0 1.0 0.0
8
0.547705 0.452295 0.493561 0.506439 0.234102 0.765898 0.814807 0.185193
8
0.0 1.0 1.0 0.0 1.0 0.0 0.0 1.0
8
1.0 0.0 1.0 0.0 0.0 1.0 0.0 1.0
8
1.0 0.0 1.0 0.0 0.0 1.0 0.0 1.0
8
0.0 1.0 0.0 1.0 0.0 1.0 1.0 0.0
8
0.0 1.0 1.0 0.0 1.0 0.0 0.0 1.0
8
1.0 0.0 0.0 1.0 0.0 1.0 0.0 1.0
8
0.419685 0.580315 0.736015 0.263985 0.144312 0.855688 0.661536 0.338464
8
0.0 1.0 0.0 1.0 1.0 0.0 1.0 0.0
8
0.0 1.0 0.0 1.0 1.0 0.0 0.0 1.0
8
0.0 1.0 0.0 1.0 0.0 1.0 1.0 0.0
8
0.0 1.0 1.0 0.0 1.0 0.0 1.0 0.0
8
0.0 1.0 1.0 0.0 1.0 0.0 0.0 1.0
8
0.214095 0.785905 0.0836466 0.916353 0.589963 0.410037 0.358407 0.641593
8
1.0 0.0 1.0 0.0 1.0 0.0 0.0 1.0
8
1.0 0.0 0.0 1.0 0.0 1.0 1.0 0.0
8
0.807819 0.192181 0.602196 0.397804 0.370709 0.629291 0.624525 0.375475
8
1.0 0.0 1.0 0.0 1.0 0.0 0.0 1.0
8
1.0 0.0 0.0 1.0 0.0 1.0 1.0 0.0
8
0.304032 0.695968 0.601794 0.398206 0.455576 0.544424 0.662438 0.337562
8
1.0 0.0 0.0 1.0 1.0 0.0 1.0 0.0
8
0.0 1.0 1.0 0.0 1.0 0.0 1.0 0.0
4
0.48915 0.51085 0.0396019 0.960398
8
1.0 0.0 0.0 1.0 0.0 1.0 1.0 0.0
8
1.0 0.0 0.0 1.0 0.0 1.0 1.0 0.0
8
1.0 0.0 0.0 1.0 0.0 1.0 0.0 1.0
8
1.0 0.0 0.0 1.0 1.0 0.0 0.0 1.0
8
1.0 0.0 0.0 1.0 1.0 0.0 1.0 0.0
8
1.0 0.0 0.0 1.0 1.0 0.0 0.0 1.0
8
0.0 1.0 1.0 0.0 0.0 1.0 1.0 0.0
8
0.837201 0.162799 0.448774 0.551226 0.271734 0.728266 0.271634 0.728366
8
1.0 0.0 0.0 1.0 0.0 1.0 1.0 0.0
8
0.127553 0.872447 0.0214142 0.978586 0.679938 0.320062 0.50609 0.49391
8
0.0 1.0 1.0 0.0 1.0 0.0 1.0 0.0
8
0.0 1.0 0.0 1.0 0.0 1.0 1.0 0.0
8
0.926575 0.0734248 0.173804 0.826196 0.463107 0.536893 0.795187 0.204813
8
0.0 1.0 1.0 0.0 0.0 1.0 0.0 1.0
8
0.0 1.0 1.0 0.0 1.0 0.0 1.0 0.0
8
0.0 1.0 0.0 1.0 0.0 1.0 1.0 0.0
8
1.0 0.0 0.0 1.0 0.0 1.0 0.0 1.0
8
0.0 1.0 0.0 1.0 0.0 1.0 1.0 0.0
8
0.320142 0.679858 0.251412 0.748588 0.390619 0.609381 0.115329 0.884671
8
1.0 0.0 0.0 1.0 0.0 1.0 0.0 1.0
8
0.0 1.0 1.0 0.0 1.0 0.0 0.0 1.0
8
0.30273 0.69727 0.756061 0.243939 0.90077 0.0992301 0.358576 0.641424
8
0.0 1.0 1.0 0.0 1.0 0.0 0.0 1.0
4
0.0 1.0 1.0 0.0
8
0.0 1.0 1.0 0.0 1.0 0.0 0.0 1.0
8
1.0 0.0 0.0 1.0 0.0 1.0 1.0 0.0
8
1.0 0.0 1.0 0.0 0.0 1.0 0.0 1.0
8
1.0 0.0 1.0 0.0 1.0 0.0 0.0 1.0
8
1.0 0.0 0.0 1.0 1.0 0.0 1.0 0.0
8
0.0 1.0 0.0 1.0 1.0 0.0 0.0 1.0
8
1.0 0.0 0.0 1.0 1.0 0.0 1.0 0.0
8
0.0 1.0 1.0 0.0 1.0 0.0 1.0 0.0
8
1.0 0.0 0.0 1.0 0.0 1.0 0.0 1.0
8
0.0 1.0 1.0 0.0 0.0 1.0 0.0 1.0
8
1.0 0.0 1.0 0.0 0.0 1.0 0.0 1.0
8
0.0 1.0 0.0 1.0 1.0 0.0 1.0 0.0
8
0.0 1.0 1.0 0.0 0.0 1.0 0.0 1.0
8
0.726449 0.273551 0.180825 0.819175 0.833134 0.166866 0.569616 0.430384
8
0.0 1.0 1.0 0.0 0.0 1.0 1.0 0.0
8
0.0 1.0 1.0 0.0 0.0 1.0 0.0 1.0
8
0.658184 0.341816 0.759028 0.240972 0.810119 0.189881 0.719914 0.280086
8
0.0 1.0 0.0 1.0 0.0 1.0 1.0 0.0
8
1.0 0.0 0.0 1.0 0.0 1.0 1.0 0.0
8
1.0 0.0 0.0 1.0 1.0 0.0 0.0 1.0
8
1.0 0.0 0.0 1.0 0.0 1.0 1.0 0.0
8
1.0 0.0 1.0 0.0 0.0 1.0 1.0 0.0
8
0.740736 0.259264 0.54871 0.45129 0.708647 0.291353 0.550855 0.449145
4
1.0 0.0 0.0 1.0
8
0.0 1.0 1.0 0.0 1.0 0.0 1.0 0.0
8
1.0 0.0 1.0 0.0 0.0 1.0 1.0 0.0
8
0.0 1.0 0.0 1.0 1.0 0.0 1.0 0.0
8
0.0554156 0.944584 0.737817 0.262183 0.188349 0.811651 0.627235 0.372765
8
1.0 0.0 1.0 0.0 0.0 1.0 0.0 1.0
8
1.0 0.0 0.0 1.0 0.0 1.0 1.0 0.0
8
0.0 1.0 0.0 1.0 1.0 0.0 1.0 0.0
8
0.282219 0.717781 0.898007 0.101993 0.902957 0.0970426 0.578105 0.421895
8
0.0 1.0 0.0 1.0 1.0 0.0 1.0 0.0
8
1.0 0.0 0.0 1.0 1.0 0.0 1.0 0.0
8
0.0 1.0 1.0 0.0 1.0 0.0 0.0 1.0
8
0.0 1.0 1.0 0.0 0.0 1.0 1.0 0.0
8
0.0 1.0 1.0 0.0 0.0 1.0 1.0 0.0
8
0.0 1.0 1.0 0.0 0.0 1.0 1.0 0.0
8
1.0 0.0 1.0 0.0 0.0 1.0 0.0 1.0
8
0.0 1.0 1.0 0.0 0.0 1.0 1.0 0.0
8
0.0 1.0 1.0 0.0 0.0 1.0 1.0 0.0
8
1.0 0.0 1.0 0.0 0.0 1.0 1.0 0.0
8
1.0 0.0 0.0 1.0 1.0 0.0 1.0 0.0
8
0.291425 0.708575 0.67726 0.32274 0.872845 0.127155 0.45834 0.54166
8
0.0 1.0 1.0 0.0 0.0 1.0 1.0 0.0
8
0.179221 0.820779 0.563066 0.436934 0.735005 0.264995 0.678489 0.321511
8
0.112136 0.887864 0.246258 0.753742 0.0733239 0.926676 0.636424 0.363576
4
0.751856 0.248144 0.563786 0.436214
8
0.0 1.0 1.0 0.0 0.0 1.0 0.0 1.0
8
1.0 0.0 1.0 0.0 0.0 1.0 1.0 0.0
8
1.0 0.0 1.0 0.0 1.0 0.0 0.0 1.0
8
0.0298757 0.970124 0.50034 0.49966 0.887242 0.112758 0.209097 0.790903
8
0.0 1.0 1.0 0.0 1.0 0.0 0.0 1.0
8
0.0 1.0 1.0 0.0 0.0 1.0 1.0 0.0
8
0.175731 0.824269 0.619528 0.380472 0.635586 0.364414 0.0464604 0.95354
8
0.0 1.0 1.0 0.0 1.0 0.0 1.0 0.0
8
0.78785 0.21215 0.782238 0.217762 0.302726 0.697274 0.366326 0.633674
8
1.0 0.0 0.0 1.0 1.0 0.0 1.0 0.0
8
0.18912 0.81088 0.429285 0.570715 0.797053 0.202947 0.923503 0.0764966
8
1.0 0.0 1.0 0.0 0.0 1.0 0.0 1.0
8
0.0 1.0 0.0 1.0 0.0 1.0 1.0 0.0
8
0.0 1.0 0.0 1.0 1.0 0.0 1.0 0.0
8
0.178969 0.821031 0.440312 0.559688 0.667534 0.332466 0.481695 0.518305
8
0.347165 0.652835 0.814297 0.185703 0.673304 0.326696 0.914038 0.0859622
8
1.0 0.0 1.0 0.0 0.0 1.0 1.0 0.0
8
0.0 1.0 0.0 1.0 0.0 1.0 1.0 0.0
8
0.0 1.0 1.0 0.0 1.0 0.0 0.0 1.0
8
0.0 1.0 0.0 1.0 1.0 0.0 1.0 0.0
8
0.135164 0.864836 0.521378 0.478622 0.258613 0.741387 0.802698 0.197302
8
0.0 1.0 0.0 1.0 1.0 0.0 1.0 0.0
8
1.0 0.0 0.0 1.0 0.0 1.0 0.0 1.0
4
1.0 0.0 0.0 1.0
8
0.0 1.0 0.0 1.0 1.0 0.0 1.0 0.0
8
0.0 1.0 1.0 0.0 0.0 1.0 1.0 0.0
8
1.0 0.0 0.0 1.0 0.0 1.0 1.0 0.0
8
0.998199 0.00180141 0.721692 0.278308 0.618703 0.381297 0.0012715 0.998728
8
0.768566 0.231434 0.818641 0.181359 0.525499 0.474501 0.832467 0.167533
8
0.86743 0.13257 0.999526 0.000474171 0.950654 0.0493464 0.60979 0.39021
8
0.0 1.0 1.0 0.0 0.0 1.0 0.0 1.0
8
0.429472 0.570528 0.00119699 0.998803 0.251447 0.748553 0.860445 0.139555
8
0.0 1.0 1.0 0.0 0.0 1.0 1.0 0.0
8
0.0 1.0 0.0 1.0 0.0 1.0 1.0 0.0
8
0.74456 0.25544 0.430541 0.569459 0.393436 0.606564 0.577027 0.422973
8
0.0 1.0 0.0 1.0 0.0 1.0 1.0 0.0
8
0.0 1.0 1.0 0.0 0.0 1.0 1.0 0.0
8
1.0 0.0 0.0 1.0 1.0 0.0 0.0 1.0
8
1.0 0.0 0.0 1.0 1.0 0.0 0.0 1.0
8
1.0 0.0 0.0 1.0 1.0 0.0 1.0 0.0
8
0.0 1.0 1.0 0.0 1.0 0.0 1.0 0.0
8
0.0 1.0 0.0 1.0 1.0 0.0 0.0 1.0
8
0.12695 0.87305 0.591702 0.408298 0.438422 0.561578 0.255211 0.744789
8
0.688667 0.311333 0.812944 0.187056 0.188864 0.811136 0.190359 0.809641
8
1.0 0.0 0.0 1.0 1.0 0.0 0.0 1.0
8
0.0 1.0 0.0 1.0 1.0 0.0 1.0 0.0
8
1.0 0.0 1.0 0.0 0.0 1.0 1.0 0.0
4
1.0 0.0 0.0 1.0
8
1.0 0.0 0.0 1.0 1.0 0.0 0.0 1.0
8
1.0 0.0 0.0 1.0 1.0 0.0 0.0 1.0
8
0.0 1.0 0.0 1.0 0.0 1.0 1.0 0.0
8
1.0 0.0 1.0 0.0 1.0 0.0 0.0 1.0
8
0.0382135 0.961787 0.841857 0.158143 0.472954 0.527046 0.928067 0.0719331
8
0.0 1.0 1.0 0.0 0.0 1.0 1.0 0.0
8
1.0 0.0 1.0 0.0 1.0 0.0 0.0 1.0
8
1.0 0.0 0.0 1.0 0.0 1.0 0.0 1.0
8
0.0 1.0 1.0 0.0 1.0 0.0 1.0 0.0
8
0.0 1.0 1.0 0.0 1.0 0.0 0.0 1.0
8
0.0 1.0 0.0 1.0 1.0 0.0 0.0 1.0
8
1.0 0.0 0.0 1.0 1.0 0.0 1.0 0.0
8
0.178774 0.821226 0.432827 0.567173 0.290608 0.709392 0.33427 0.66573
8
0.0 1.0 0.0 1.0 0.0 1.0 1.0 0.0
8
1.0 0.0 0.0 1.0 0.0 1.0 0.0 1.0
8
0.0 1.0 1.0 0.0 1.0 0.0 1.0 0.0
8
0.0 1.0 1.0 0.0 1.0 0.0 1.0 0.0
8
0.0 1.0 1.0 0.0 1.0 0.0 1.0 0.0
8
0.0 1.0 1.0 0.0 0.0 1.0 1.0 0.0
8
0.0 1.0 1.0 0.0 0.0 1.0 1.0 0.0
8
1.0 0.0 1.0 0.0 0.0 1.0 1.0 0.0
8
0.157698 0.842302 0.927627 0.0723735 0.829207 0.170793 0.361506 0.638494
8
0.0 1.0 1.0 0.0 0.0 1.0 0.0 1.0
4
0.0 1.0 1.0 0.0
8
0.0 1.0 0.0 1.0 0.0 1.0 1.0 0.0
8
1.0 0.0 0.0 1.0 1.0 0.0 1.0 0.0
8
1.0 0.0 1.0 0.0 1.0 0.0 0.0 1.0
8
0.0 1.0 1.0 0.0 0.0 1.0 1.0 0.0
8
0.758064 0.241936 0.586775 0.413225 0.193817 0.806183 0.998613 0.00138717
8
1.0 0.0 1.0 0.0 1.0 0.0 0.0 1.0
8
1.0 0.0 0.0 1.0 0.0 1.0 0.0 1.0
8
1.0 0.0 1.0 0.0 1.0 0.0 0.0 1.0
8
0.0 1.0 1.0 0.0 1.0 0.0 0.0 1.0
8
0.0 1.0 0.0 1.0 1.0 0.0 0.0 1.0
8
1.0 0.0 1.0 0.0 0.0 1.0 1.0 0.0
8
0.180362 0.819638 0.370005 0.629995 0.998879 0.00112087 0.100544 0.899456
8
0.228229 0.771771 0.141959 0.858041 0.426923 0.573077 0.34923 0.65077
8
0.528857 0.471143 0.50704 0.49296 0.266295 0.733705 0.268901 0.731099
8
1.0 0.0 0.0 1.0 1.0 0.0 1.0 0.0
8
1.0 0.0 1.0 0.0 0.0 1.0 0.0 1.0
8
1.0 0.0 1.0 0.0 0.0 1.0 1.0 0.0
8
0.0 1.0 1.0 0.0 1.0 0.0 0.0 1.0
8
1.0 0.0 0.0 1.0 0.0 1.0 0.0 1.0
8
0.301224 0.698776 0.925254 0.0747465 0.494971 0.505029 0.56752 0.43248
8
0.0 1.0 1.0 0.0 1.0 0.0 1.0 0.0
8
1.0 0.0 0.0 1.0 1.0 0.0 0.0 1.0
8
0.0 1.0 1.0 0.0 0.0 1.0 0.0 1.0
4
0.0 1.0 1.0 0.0
8
0.0 1.0 1.0 0.0 1.0 0.0 1.0 0.0
8
1.0 0.0 1.0 0.0 1.0 0.0 0.0 1.0
8
1.0 0.0 0.0 1.0 1.0 0.0 0.0 1.0
8
0.0 1.0 1.0 0.0 1.0 0.0 0.0 1.0
8
0.0 1.0 1.0 0.0 0.0 1.0 0.0 1.0
8
0.0178594 0.982141 0.100324 0.899676 0.723895 0.276105 0.377386 0.622614
8
0.0 1.0 1.0 0.0 0.0 1.0 1.0 0.0
8
1.0 0.0 0.0 1.0 0.0 1.0 0.0 1.0
8
0.319188 0.680812 0.959745 0.0402548 0.577499 0.422501 0.36245 0.63755
8
0.0702452 0.929755 0.806468 0.193532 0.492372 0.507628 0.225549 0.774451
8
1.0 0.0 0.0 1.0 0.0 1.0 0.0 1.0
8
1.0 0.0 0.0 1.0 1.0 0.0 1.0 0.0
8
0.0 1.0 1.0 0.0 0.0 1.0 0.0 1.0
8
1.0 0.0 0.0 1.0 0.0 1.0 1.0 0.0
8
0.994607 0.00539324 0.780013 0.219987 0.76685 0.23315 0.572106 0.427894
8
0.0 1.0 0.0 1.0 0.0 1.0 1.0 0.0
8
0.657193 0.342807 0.180887 0.819113 0.125286 0.874714 0.0453642 0.954636
8
0.723618 0.276382 0.404065 0.595935 0.516702 0.483298 0.422273 0.577727
8
0.0 1.0 1.0 0.0 0.0 1.0 0.0 1.0
8
0.893839 0.106161 0.136757 0.863243 0.428421 0.571579 0.00797777 0.992022
8
0.0 1.0 0.0 1.0 1.0 0.0 1.0 0.0
8
0.0 1.0 1.0 0.0 1.0 0.0 0.0 1.0
8
0.0849408 0.915059 0.126181 0.873819 0.00527783 0.994722 0.210227 0.789773
4
1.0 0.0 0.0 1.0
8
0.575611 0.424389 0.361845 0.638155 0.356118 0.643882 0.0622723 0.937728
8
0.998533 0.00146736 0.520383 0.479617 0.452148 0.547852 0.835523 0.164477
8
0.0 1.0 1.0 0.0 0.0 1.0 0.0 1.0
8
1.0 0.0 0.0 1.0 0.0 1.0 0.0 1.0
8
1.0 0.0 0.0 1.0 1.0 0.0 1.0 0.0
8
1.0 0.0 0.0 1.0 0.0 1.0 0.0 1.0
8
1.0 0.0 0.0 1.0 0.0 1.0 0.0 1.0
8
1.0 0.0 1.0 0.0 0.0 1.0 0.0 1.0
8
0.0 1.0 1.0 0.0 1.0 0.0 1.0 0.0
8
1.0 0.0 1.0 0.0 1.0 0.0 0.0 1.0
8
1.0 0.0 1.0 0.0 0.0 1.0 0.0 1.0
8
1.0 0.0 0.0 1.0 0.0 1.0 1.0 0.0
8
1.0 0.0 0.0 1.0 1.0 0.0 1.0 0.0
8
0.0 1.0 1.0 0.0 0.0 1.0 1.0 0.0
8
1.0 0.0 0.0 1.0 1.0 0.0 1.0 0.0
8
0.0 1.0 0.0 1.0 1.0 0.0 1.0 0.0
8
0.0 1.0 0.0 1.0 1.0 0.0 0.0 1.0
8
0.0 1.0 0.0 1.0 0.0 1.0 1.0 0.0
8
1.0 0.0 0.0 1.0 0.0 1.0 1.0 0.0
8
0.0 1.0 1.0 0.0 1.0 0.0 0.0 1.0
8
1.0 0.0 1.0 0.0 0.0 1.0 0.0 1.0
8
0.0 1.0 0.0 1.0 1.0 0.0 1.0 0.0
8
1.0 0.0 1.0 0.0 1.0 0.0 0.0 1.0
4
1.0 0.0 0.0 1.0
8
1.0 0.0 1.0 0.0 0.0 1.0 1.0 0.0
8
1.0 0.0 1.0 0.0 0.0 1.0 0.0 1.0
8
1.0 0.0 1.0 0.0 0.0 1.0 0.0 1.0
8
0.0 1.0 0.0 1.0 0.0 1.0 1.0 0.0
8
0.0 1.0 0.0 1.0 1.0 0.0 1.0 0.0
8
0.225684 0.774316 0.716304 0.283696 0.697778 0.302222 0.576369 0.423631
8
1.0 0.0 1.0 0.0 0.0 1.0 1.0 0.0
8
1.0 0.0 0.0 1.0 1.0 0.0 1.0 0.0
8
1.0 0.0 0.0 1.0 0.0 1.0 0.0 1.0
8
1.0 0.0 0.0 1.0 1.0 0.0 1.0 0.0
8
1.0 0.0 0.0 1.0 1.0 0.0 1.0 0.0
8
1.0 0.0 1.0 0.0 0.0 1.0 1.0 0.0
8
1.0 0.0 0.0 1.0 0.0 1.0 1.0 0.0
8
0.0 1.0 0.0 1.0 0.0 1.0 1.0 0.0
8
1.0 0.0 1.0 0.0 1.0 0.0 0.0 1.0
8
0.0 1.0 1.0 0.0 1.0 0.0 0.0 1.0
8
0.0 1.0 0.0 1.0 1.0 0.0 1.0 0.0
8
0.0 1.0 1.0 0.0 0.0 1.0 1.0 0.0
8
1.0 0.0 1.0 0.0 0.0 1.0 0.0 1.0
8
0.0 1.0 0.0 1.0 1.0 0.0 1.0 0.0
8
0.498883 0.501117 0.773139 0.226861 0.587424 0.412576 0.454538 0.545462
8
0.0 1.0 0.0 1.0 0.0 1.0 1.0 0.0
8
0.18801 0.81199 0.819712 0.180288 0.740695 0.259305 0.518481 0.481519
4
1.0 0.0 0.0 1.0
8
0.0 1.0 1.0 0.0 0.0 1.0 0.0 1.0
8
0.919717 0.0802832 0.780086 0.219914 0.856009 0.143991 0.522088 0.477912
8
0.0 1.0 1.0 0.0 0.0 1.0 1.0 0.0
8
0.546362 0.453638 0.59887 0.40113 0.399757 0.600243 0.811955 0.188045
8
1.0 0.0 0.0 1.0 0.0 1.0 1.0 0.0
8
0.0 1.0 1.0 0.0 1.0 0.0 1.0 0.0
8
1.0 0.0 0.0 1.0 0.0 1.0 1.0 0.0
8
0.0 1.0 1.0 0.0 1.0 0.0 1.0 0.0
8
1.0 0.0 1.0 0.0 1.0 0.0 0.0 1.0
8
0.0 1.0 1.0 0.0 1.0 0.0 0.0 1.0
8
0.0 1.0 0.0 1.0 1.0 0.0 1.0 0.0
8
1.0 0.0 0.0 1.0 0.0 1.0 1.0 0.0
8
0.0 1.0 1.0 0.0 1.0 0.0 1.0 0.0
8
1.0 0.0 0.0 1.0 0.0 1.0 0.0 1.0
8
0.0985952 0.901405 0.307223 0.692777 0.0441917 0.955808 0.477895 0.522105
8
1.0 0.0 1.0 0.0 0.0 1.0 1.0 0.0
8
1.0 0.0 1.0 0.0 0.0 1.0 1.0 0.0
8
1.0 0.0 0.0 1.0 1.0 0.0 0.0 1.0
8
0.0 1.0 0.0 1.0 0.0 1.0 1.0 0.0
8
0.659214 0.340786 0.23534 0.76466 0.151128 0.848872 0.151733 0.848267
8
0.0 1.0 0.0 1.0 1.0 0.0 1.0 0.0
8
0.0 1.0 0.0 1.0 1.0 0.0 0.0 1.0
8
0.272956 0.727044 0.888265 0.111735 0.817311 0.182689 0.445995 0.554005
4
0.0 1.0 1.0 0.0
8
1.0 0.0 1.0 0.0 0.0 1.0 1.0 0.0
8
0.0 1.0 1.0 0.0 1.0 0.0 0.0 1.0
8
0.0 1.0 0.0 1.0 1.0 0.0 0.0 1.0
8
1.0 0.0 1.0 0.0 0.0 1.0 0.0 1.0
8
0.478166 0.521834 0.644078 0.355922 0.623633 0.376367 0.751121 0.248879
8
0.0 1.0 0.0 1.0 1.0 0.0 0.0 1.0
8
1.0 0.0 1.0 0.0 1.0 0.0 0.0 1.0
8
1.0 0.0 0.0 1.0 1.0 0.0 1.0 0.0
8
0.592879 0.407121 0.532195 0.467805 0.0957518 0.904248 0.0350566 0.964943
8
1.0 0.0 0.0 1.0 0.0 1.0 1.0 0.0
8
0.0 1.0 1.0 0.0 1.0 0.0 1.0 0.0
8
0.392496 0.607504 0.923144 0.0768564 0.704773 0.295227 0.69454 0.30546
8
0.0 1.0 0.0 1.0 1.0 0.0 0.0 1.0
8
0.307337 0.692663 0.565387 0.434613 0.0660195 0.93398 0.471699 0.528301
8
1.0 0.0 0.0 1.0 0.0 1.0 0.0 1.0
8
1.0 0.0 1.0 0.0 1.0 0.0 0.0 1.0
8
1.0 0.0 1.0 0.0 0.0 1.0 0.0 1.0
8
1.0 0.0 1.0 0.0 1.0 0.0 0.0 1.0
8
1.0 0.0 0.0 1.0 1.0 0.0 0.0 1.0
8
0.317057 0.682943 0.679043 0.320957 0.350105 0.649895 0.383077 0.616923
8
0.0 1.0 0.0 1.0 1.0 0.0 0.0 1.0
8
0.0 1.0 1.0 0.0 1.0 0.0 0.0 1.0
8
0.585816 0.414184 0.585774 0.414226 0.279929 0.720071 0.12627 0.87373
4
0.62009 0.37991 0.0592196 0.94078
8
1.0 0.0 1.0 0.0 0.0 1.0 0.0 1.0
8
0.188591 0.811409 0.0493624 0.950638 0.598772 0.401228 0.505648 0.494352
8
0.0 1.0 0.0 1.0 1.0 0.0 0.0 1.0
8
0.0337843 0.966216 0.122551 0.877449 0.666631 0.333369 0.34267 0.65733
8
0.663545 0.336455 0.302547 0.697453 0.693577 0.306423 0.249361 0.750639
8
0.973506 0.026494 0.375631 0.624369 0.826019 0.173981 0.593596 0.406404
8
0.0 1.0 1.0 0.0 0.0 1.0 0.0 1.0
8
0.935613 0.0643869 0.968624 0.0313756 0.985638 0.014362 0.534385 0.465615
8
1.0 0.0 1.0 0.0 0.0 1.0 0.0 1.0
8
1.0 0.0 1.0 0.0 1.0 0.0 0.0 1.0
8
0.226844 0.773156 0.623871 0.376129 0.272193 0.727807 0.920421 0.0795793
8
0.160514 0.839486 0.893927 0.106073 0.248862 0.751138 0.986533 0.0134672
8
0.0 1.0 0.0 1.0 1.0 0.0 0.0 1.0
8
1.0 0.0 1.0 0.0 1.0 0.0 0.0 1.0
8
0.0 1.0 1.0 0.0 1.0 0.0 0.0 1.0
8
0.0 1.0 1.0 0.0 1.0 0.0 0.0 1.0
8
1.0 0.0 1.0 0.0 0.0 1.0 1.0 0.0
8
0.0 1.0 1.0 0.0 1.0 0.0 0.0 1.0
8
0.294942 0.705058 0.0164715 0.983528 0.638901 0.361099 0.100213 0.899787
8
0.321319 0.678681 0.841098 0.158902 0.595799 0.404201 0.989374 0.0106258
8
0.0 1.0 1.0 0.0 0.0 1.0 0.0 1.0
8
0.360231 0.639769 0.949032 0.0509682 0.238957 0.761043 0.225496 0.774504
8
0.0 1.0 0.0 1.0 0.0 1.0 1.0 0.0
4
0.0 1.0 1.0 0.0
8
0.0 1.0 0.0 1.0 1.0 0.0 1.0 0.0
8
0.0 1.0 1.0 0.0 1.0 0.0 1.0 0.0
8
0.794921 0.205079 0.588745 0.411255 0.0408511 0.959149 0.638968 0.361032
8
0.91575 0.08425 0.0942598 0.90574 0.306983 0.693017 0.790662 0.209338
8
0.0 1.0 0.0 1.0 1.0 0.0 0.0 1.0
8
0.0 1.0 1.0 0.0 1.0 0.0 1.0 0.0
8
0.159851 0.840149 0.872513 0.127487 0.586165 0.413835 0.143024 0.856976
8
1.0 0.0 0.0 1.0 1.0 0.0 0.0 1.0
8
1.0 0.0 0.0 1.0 0.0 1.0 0.0 1.0
8
1.0 0.0 1.0 0.0 0.0 1.0 1.0 0.0
8
0.0 1.0 1.0 0.0 1.0 0.0 0.0 1.0
8
0.506179 0.493821 0.494523 0.505477 0.987862 0.0121382 0.977799 0.0222006
8
1.0 0.0 0.0 1.0 1.0 0.0 0.0 1.0
8
1.0 0.0 1.0 0.0 0.0 1.0 0.0 1.0
8
0.657977 0.342023 0.821317 0.178683 0.901178 0.0988224 0.849722 0.150278
8
1.0 0.0 0.0 1.0 0.0 1.0 0.0 1.0
8
0.112792 0.887208 0.808813 0.191187 0.783148 0.216852 0.224351 0.775649
8
1.0 0.0 0.0 1.0 0.0 1.0 0.0 1.0
8
0.0 1.0 0.0 1.0 1.0 0.0 1.0 0.0
8
0.0 1.0 1.0 0.0 0.0 1.0 0.0 1.0
8
0.0 1.0 1.0 0.0 1.0 0.0 0.0 1.0
8
0.0 1.0 0.0 1.0 1.0 0.0 0.0 1.0
8
0.0 1.0 1.0 0.0 0.0 1.0 1.0 0.0
4
0.266574 0.733426 0.307563 0.692437
8
1.0 0.0 1.0 0.0 1.0 0.0 0.0 1.0
8
1.0 0.0 1.0 0.0 1.0 0.0 0.0 1.0
8
0.835824 0.164176 0.041327 0.958673 0.0207982 0.979202 0.127539 0.872461
8
0.0 1.0 1.0 0.0 1.0 0.0 0.0 1.0
8
1.0 0.0 0.0 1.0 1.0 0.0 0.0 1.0
8
0.0 1.0 1.0 0.0 0.0 1.0 1.0 0.0
8
1.0 0.0 0.0 1.0 1.0 0.0 1.0 0.0
8
0.0 1.0 0.0 1.0 0.0 1.0 1.0 0.0
8
0.0 1.0 0.0 1.0 1.0 0.0 1.0 0.0
8
0.0 1.0 1.0 0.0 1.0 0.0 1.0 0.0
8
1.0 0.0 0.0 1.0 1.0 0.0 0.0 1.0
8
0.0 1.0 1.0 0.0 0.0 1.0 0.0 1.0
8
1.0 0.0 1.0 0.0 0.0 1.0 0.0 1.0
8
1.0 0.0 0.0 1.0 0.0 1.0 1.0 0.0
8
0.0 1.0 1.0 0.0 0.0 1.0 0.0 1.0
8
1.0 0.0 0.0 1.0 0.0 1.0 0.0 1.0
8
0.0 1.0 0.0 1.0 0.0 1.0 1.0 0.0
8
1.0 0.0 1.0 0.0 1.0 0.0 0.0 1.0
8
0.0 1.0 1.0 0.0 1.0 0.0 1.0 0.0
8
0.0 1.0 1.0 0.0 0.0 1.0 0.0 1.0
8
0.0 1.0 1.0 0.0 1.0 0.0 0.0 1.0
8
0.0 1.0 1.0 0.0 1.0 0.0 1.0 0.0
8
0.801606 0.198394 0.435076 0.564924 0.137515 0.862485 0.930627 0.0693727
4
0.962924 0.0370761 0.385859 0.614141
8
0.0774425 0.922557 0.0689814 0.931019 0.910275 0.0897248 0.694115 0.305885
8
0.312484 0.687516 0.255439 0.744561 0.999781 0.000219118 0.604914 0.395086
8
0.0 1.0 0.0 1.0 1.0 0.0 0.0 1.0
8
0.0 1.0 1.0 0.0 0.0 1.0 1.0 0.0
8
1.0 0.0 0.0 1.0 1.0 0.0 0.0 1.0
8
0.331763 0.668237 0.67293 0.32707 0.744395 0.255605 0.294687 0.705313
8
1.0 0.0 0.0 1.0 0.0 1.0 0.0 1.0
8
1.0 0.0 0.0 1.0 1.0 0.0 1.0 0.0
8
0.0 1.0 1.0 0.0 1.0 0.0 1.0 0.0
8
0.621024 0.378976 0.517647 0.482353 0.732237 0.267763 0.198033 0.801967
8
0.0 1.0 1.0 0.0 1.0 0.0 1.0 0.0
8
0.827145 0.172855 0.543203 0.456797 0.553962 0.446038 0.57154 0.42846
8
0.61275 0.38725 0.123076 0.876924 0.210019 0.789981 0.74052 0.25948
8
0.0 1.0 1.0 0.0 0.0 1.0 1.0 0.0
8
0.0 1.0 1.0 0.0 1.0 0.0 1.0 0.0
8
0.0 1.0 0.0 1.0 1.0 0.0 1.0 0.0
8
0.0 1.0 1.0 0.0 1.0 0.0 1.0 0.0
8
0.0 1.0 1.0 0.0 1.0 0.0 1.0 0.0
8
0.0 1.0 0.0 1.0 1.0 0.0 1.0 0.0
8
1.0 0.0 0.0 1.0 1.0 0.0 1.0 0.0
8
0.176511 0.823489 0.174912 0.825088 0.617436 0.382564 0.0459346 0.954065
8
1.0 0.0 0.0 1.0 0.0 1.0 0.0 1.0
8
0.0 1.0 1.0 0.0 1.0 0.0 1.0 0.0
4
1.0 0.0 0.0 1.0
8
1.0 0.0 0.0 1.0 0.0 1.0 1.0 0.0
8
0.0196517 0.980348 0.306219 0.693781 0.512941 0.487059 0.0985884 0.901412
8
1.0 0.0 0.0 1.0 1.0 0.0 0.0 1.0
8
0.0 1.0 1.0 0.0 0.0 1.0 1.0 0.0
8
1.0 0.0 0.0 1.0 0.0 1.0 0.0 1.0
8
1.0 0.0 0.0 1.0 0.0 1.0 0.0 1.0
8
1.0 0.0 1.0 0.0 0.0 1.0 1.0 0.0
8
0.0 1.0 0.0 1.0 1.0 0.0 1.0 0.0
8
0.0 1.0 1.0 0.0 0.0 1.0 1.0 0.0
8
0.0 1.0 0.0 1.0 0.0 1.0 1.0 0.0
8
0.0 1.0 1.0 0.0 0.0 1.0 0.0 1.0
8
1.0 0.0 1.0 0.0 0.0 1.0 1.0 0.0
8
0.486517 0.513483 0.828329 0.171671 0.18221 0.81779 0.464919 0.535081
8
0.0 1.0 1.0 0.0 0.0 1.0 0.0 1.0
8
0.0 1.0 0.0 1.0 1.0 0.0 0.0 1.0
8
1.0 0.0 0.0 1.0 1.0 0.0 1.0 0.0
8
1.0 0.0 0.0 1.0 1.0 0.0 1.0 0.0
8
1.0 0.0 0.0 1.0 1.0 0.0 0.0 1.0
8
0.0 1.0 1.0 0.0 0.0 1.0 1.0 0.0
8
0.906402 0.0935978 0.725269 0.274731 0.989648 0.0103516 0.107087 0.892913
8
0.0 1.0 1.0 0.0 1.0 0.0 0.0 1.0
8
0.0173875 0.982613 0.564126 0.435874 0.496421 0.503579 0.662646 0.337354
8
0.0 1.0 0.0 1.0 0.0 1.0 1.0 0.0
4
0.0 1.0 1.0 0.0
8
0.0 1.0 1.0 0.0 1.0 0.0 0.0 1.0
8
0.0 1.0 1.0 0.0 0.0 1.0 0.0 1.0
8
1.0 0.0 0.0 1.0 0.0 1.0 1.0 0.0
8
0.990422 0.0095783 0.994737 0.00526281 0.688735 0.311265 0.00780919 0.992191
8
1.0 0.0 1.0 0.0 0.0 1.0 1.0 0.0
8
0.0 1.0 1.0 0.0 1.0 0.0 0.0 1.0
8
1.0 0.0 0.0 1.0 0.0 1.0 1.0 0.0
8
1.0 0.0 1.0 0.0 0.0 1.0 1.0 0.0
8
0.0 1.0 0.0 1.0 1.0 0.0 1.0 0.0
8
1.0 0.0 1.0 0.0 0.0 1.0 0.0 1.0
8
0.965607 0.0343932 0.908135 0.0918654 0.452862 0.547138 0.837617 0.162383
8
1.0 0.0 1.0 0.0 0.0 1.0 0.0 1.0
8
0.0 1.0 1.0 0.0 0.0 1.0 0.0 1.0
8
0.0 1.0 1.0 0.0 1.0 0.0 1.0 0.0
8
0.0 1.0 1.0 0.0 0.0 1.0 1.0 0.0
8
1.0 0.0 0.0 1.0 1.0 0.0 0.0 1.0
8
0.0965928 0.903407 0.481204 0.518796 0.375463 0.624537 0.934209 0.0657906
8
1.0 0.0 0.0 1.0 0.0 1.0 0.0 1.0
8
1.0 0.0 0.0 1.0 0.0 1.0 1.0 0.0
8
0.657887 0.342113 0.132155 0.867845 0.221683 0.778317 0.505234 0.494766
8
1.0 0.0 1.0 0.0 1.0 0.0 0.0 1.0
8
1.0 0.0 0.0 1.0 1.0 0.0 1.0 0.0
8
1.0 0.0 1.0 0.0 0.0 1.0 0.0 1.0
4
0.0 1.0 1.0 0.0
8
0.0 1.0 1.0 0.0 1.0 0.0 0.0 1.0
8
0.0 1.0 1.0 0.0 0.0 1.0 0.0 1.0
8
1.0 0.0 1.0 0.0 1.0 0.0 0.0 1.0
8
1.0 0.0 0.0 1.0 1.0 0.0 1.0 0.0
8
0.0 1.0 1.0 0.0 0.0 1.0 0.0 1.0
8
1.0 0.0 0.0 1.0 1.0 0.0 1.0 0.0
8
0.255353 0.744647 0.367212 0.632788 0.749519 0.250481 0.379016 0.620984
8
0.845229 0.154771 0.148654 0.851346 0.342048 0.657952 0.83586 0.16414
8
0.385416 0.614584 0.958646 0.0413539 0.733349 0.266651 0.934019 0.0659808
8
0.439641 0.560359 0.300092 0.699908 0.125491 0.874509 0.314631 0.685369
8
1.0 0.0 1.0 0.0 0.0 1.0 1.0 0.0
8
0.0 1.0 0.0 1.0 1.0 0.0 1.0 0.0
8
0.446759 0.553241 0.134499 0.865501 0.522975 0.477025 0.825775 0.174225
8
0.0 1.0 0.0 1.0 1.0 0.0 0.0 1.0
8
0.818528 0.181472 0.162711 0.837289 0.537939 0.462061 0.752548 0.247452
8
0.97758 0.0224201 0.0526394 0.947361 0.0714425 0.928557 0.292211 0.707789
8
1.0 0.0 1.0 0.0 1.0 0.0 0.0 1.0
8
1.0 0.0 0.0 1.0 0.0 1.0 0.0 1.0
8
1.0 0.0 0.0 1.0 1.0 0.0 1.0 0.0
8
0.305474 0.694526 0.625377 0.374623 0.378317 0.621683 0.509539 0.490461
8
0.0 1.0 1.0 0.0 1.0 0.0 0.0 1.0
8
0.0 1.0 1.0 0.0 1.0 0.0 0.0 1.0
8
0.0 1.0 1.0 0.0 0.0 1.0 0.0 1.0
4
1.0 0.0 0.0 1.0
8
0.373878 0.626122 0.876844 0.123156 0.661798 0.338202 0.788173 0.211827
8
1.0 0.0 1.0 0.0 1.0 0.0 0.0 1.0
8
1.0 0.0 0.0 1.0 0.0 1.0 0.0 1.0
8
1.0 0.0 0.0 1.0 1.0 0.0 1.0 0.0
8
0.52055 0.47945 0.559397 0.440603 0.250282 0.749718 0.117123 0.882877
8
0.0 1.0 1.0 0.0 0.0 1.0 1.0 0.0
8
1.0 0.0 0.0 1.0 0.0 1.0 1.0 0.0
8
1.0 0.0 0.0 1.0 1.0 0.0 1.0 0.0
8
0.527422 0.472578 0.779724 0.220276 0.378608 0.621392 0.563729 0.436271
8
0.754822 0.245178 0.54943 0.45057 0.823337 0.176663 0.076522 0.923478
8
0.0 1.0 1.0 0.0 1.0 0.0 1.0 0.0
8
1.0 0.0 1.0 0.0 0.0 1.0 0.0 1.0
8
1.0 0.0 0.0 1.0 1.0 0.0 0.0 1.0
8
0.554706 0.445294 0.930591 0.0694091 0.97722 0.0227798 0.242666 0.757334
8
0.0 1.0 0.0 1.0 0.0 1.0 1.0 0.0
8
0.080951 0.919049 0.883247 0.116753 0.76535 0.23465 0.157473 0.842527
8
0.0 1.0 1.0 0.0 1.0 0.0 1.0 0.0
8
0.0 1.0 0.0 1.0 1.0 0.0 0.0 1.0
8
0.801058 0.198942 0.312562 0.687438 0.0830827 0.916917 0.523298 0.476702
8
0.0 1.0 0.0 1.0 1.0 0.0 1.0 0.0
8
1.0 0.0 0.0 1.0 1.0 0.0 0.0 1.0
8
0.515345 0.484655 0.629644 0.370356 0.867606 0.132394 0.280694 0.719306
8
0.288017 0.711983 0.389931 0.610069 0.580509 0.419491 0.495875 0.504125